files/upTests/tupley12-2-s2-4/0001.eprime.solution
language ESSENCE' 1.0
$ minion Nodes: 1
$ minion TotalTime: 0.000426
$ Savile Row TotalTime: 0.195
letting pain_tuple3_Explicit be [[6], 
[6]]
letting pain_tuple4_Explicit be [[5], 
[5]]
letting pain_tuple2_Explicit be [[9], 
[9]]
letting pain_tuple1_Explicit be [[5], 
[5]]
